
Gurobi 6.0.4 (win64) logging started 06/18/15 20:06:37

Read LP format model from file E:\Eigene Dateien\Downloads\Michi shit\VRPTWMS2\instances\mip\fuel\N8-C_DV100-C_SV25_F5_8_No_1.lp
Reading time = 0.00 seconds
(null): 417 rows, 208 columns, 1715 nonzeros
Optimize a model with 417 rows, 208 columns and 1715 nonzeros
Model has 576 quadratic constraints
Coefficient statistics:
  Matrix range    [1e+00, 1e+06]
  Objective range [8e+04, 1e+07]
  Bounds range    [1e+00, 1e+06]
  RHS range       [1e+00, 1e+06]
Presolve removed 49 rows and 29 columns
Presolve time: 0.03s
Presolved: 1292 rows, 662 columns, 6351 nonzeros
Variable types: 441 continuous, 221 integer (179 binary)

Root relaxation: objective 1.344908e+07, 148 iterations, 0.00 seconds

    Nodes    |    Current Node    |     Objective Bounds      |     Work
 Expl Unexpl |  Obj  Depth IntInf | Incumbent    BestBd   Gap | It/Node Time

     0     0 1.3449e+07    0   27          - 1.3449e+07      -     -    0s
H    0     0                    7.412140e+07 1.3449e+07  81.9%     -    0s
H    0     0                    6.376890e+07 1.3449e+07  78.9%     -    0s
     0     0 2.1632e+07    0   21 6.3769e+07 2.1632e+07  66.1%     -    0s
H    0     0                    5.334410e+07 2.1632e+07  59.4%     -    0s
     0     0 2.1795e+07    0    6 5.3344e+07 2.1795e+07  59.1%     -    0s
     0     0 2.1795e+07    0    8 5.3344e+07 2.1795e+07  59.1%     -    0s
     0     0 2.1795e+07    0    6 5.3344e+07 2.1795e+07  59.1%     -    0s
     0     0 2.1795e+07    0    6 5.3344e+07 2.1795e+07  59.1%     -    0s
     0     2 2.1795e+07    0    6 5.3344e+07 2.1795e+07  59.1%     -    0s
*   28    20              16    4.361310e+07 2.1880e+07  49.8%  22.0    0s
H  187    87                    3.298270e+07 2.1891e+07  33.6%  12.5    0s
H  242   118                    3.278380e+07 2.1907e+07  33.2%  15.3    0s
H 1759   642                    3.219890e+07 2.2332e+07  30.6%  17.6    0s
  9537   196     cutoff   31      3.2199e+07 2.3593e+07  26.7%  35.9    5s

Cutting planes:
  Gomory: 3
  Cover: 1
  Implied bound: 3
  Clique: 5
  MIR: 1
  Flow cover: 1
  GUB cover: 4
  Zero half: 7

Explored 10039 nodes (395907 simplex iterations) in 5.17 seconds
Thread count was 4 (of 4 available processors)

Optimal solution found (tolerance 1.00e-04)
Best objective 3.219890000000e+07, best bound 3.219890000000e+07, gap 0.0%
k_c1	120000.0
k_c2	110000.0
k_c3	20000.0
k_c4	60000.0
k_c5	30000.0
k_c6	160000.0
k_c7	1000000.0
k_c8	130000.0
k_dN	-0.0
o_1	0.0
o_2	0.0
o_3	0.0
o_4	0.0
o_5	0.0
o_6	0.0
o_7	0.0
o_8	0.0
p_1	0.0
p_2	0.0
p_3	0.0
p_4	0.0
p_5	0.0
p_6	0.0
p_7	0.0
p_8	0.0
phi_c1	20812.0
phi_c2	29055.0
phi_c3	14731.0
phi_c4	10784.0
phi_c5	16277.0
phi_c6	37765.0
phi_c7	41203.0
phi_c8	28446.0
phi_dN	0.0
pi_c1	33865.0
pi_c2	0.0
pi_c3	0.0
pi_c4	0.0
pi_c5	0.0
pi_c6	0.0
pi_c7	0.0
pi_c8	0.0
pi_dN	-0.0
tauD_c1	547950.0
tauD_c2	500000.0
tauD_c3	800000.0
tauD_c4	800000.0
tauD_c5	567750.0
tauD_c6	65175.0
tauD_c7	50000.0
tauD_c8	250000.0
tauD_d0	-0.0
tauD_dN	1000000.0
tauS_c1	648625.0
tauS_c2	290568.0
tauS_c3	51675.0
tauS_c4	41675.0
tauS_c5	665094.0
tauS_c6	40150.0
tauS_c7	79329.0
tauS_c8	845800.0
tauS_d0	-0.0
tauS_dN	1000000.0
x_c1_c3	1.0
x_c2_c5	1.0
x_c3_dN	1.0
x_c4_dN	1.0
x_c5_dN	1.0
x_c6_c8	1.0
x_c7_c1	1.0
x_c8_c4	1.0
x_d0_c2	1.0
x_d0_c6	1.0
x_d0_c7	1.0
